c ---- [ banner ] ------------------------------------------------------------
c
c Kissat SAT Solver
c 
c Copyright (c) 2021-2024 Armin Biere University of Freiburg
c Copyright (c) 2019-2021 Armin Biere Johannes Kepler University Linz
c 
c Version 4.0.1 43f02cf3e992cb44653b35e5cb26f93281552ae0
c gcc (Ubuntu 13.2.0-23ubuntu4) 13.2.0 -W -Wall -O3 -DNDEBUG
c Thu Sep 12 12:27:46 CEST 2024 Linux abryzen9 6.8.0-41-generic x86_64
c
c ---- [ parsing ] -----------------------------------------------------------
c
c opened and reading DIMACS file:
c
c   /data/artifact/AMulet2.0_artifact/exp4/cnf_sopb_64/64_64_U2_DT_RC_Multgen_sopb.cnf
c
c parsed 'p cnf 26766 123043' header
c closing input after reading 2463442 bytes (2 MB)
c finished parsing after 0.02 seconds
c
c ---- [ options ] -----------------------------------------------------------
c
c --stable=0                       (different from default '1')
c
c ---- [ solving ] -----------------------------------------------------------
c
c  seconds switched rate     size/glue tier1  binary          remaining
c         MB reductions conflicts size  tier2    irredundant
c          level restarts redundant glue  trail          variables
c
c *  0.02 10 0 0 0  0 0   0   0 0.0 0 0 0 0 0% 1794 121247 26763 100%
c (  0.04 12 0 0 0  0 0   0   0 0.0 0 0 0 0 0% 1794 121247 26763 100%
c .  0.04 13 0 0 0  0 0   0   0 0.0 0 0 0 0 0% 1790 121247 26763 100%
c c  0.10 17 0 0 0  0 0   0   0 0.0 0 0 0 0 0% 2372 120131 26482 99%
c d  0.10 17 0 0 0  0 0   0   0 0.0 0 0 0 0 0% 1808 120131 26482 99%
c =  0.13 17 0 0 0  0 0   0   0 0.0 0 0 0 0 0% 2008 120127 26380 99%
c d  0.14 17 0 0 0  0 0   0   0 0.0 0 0 0 0 0% 1800 120127 26380 99%
c f  0.28 16 0 0 0  0 0   0   0 0.0 0 0 0 0 0% 8708 109691 29888 112%
c e  0.54 23 0 0 0  0 0   0   0 0.0 0 0 0 0 0% 1227 120279 19834 74%
c )  0.54 23 0 0 0  0 0   0   0 0.0 0 0 0 0 0% 1227 120279 19834 74%
c {  0.56 24 0 0 0  0 0   0   0 0.0 0 0 2 6 0% 1227 120279 19834 74%
c -  0.77 24 210 0 1 208 48 1000 814 2.8 12 4 2 6 19% 1246 120279 19834 74%
c -  1.13 24 208 0 2 408 50 2000 1603 3.1 16 5 2 8 22% 1253 120279 19834 74%
c c  1.37 22 250 0 2 487 57 2504 2080 3.2 21 7 2 8 23% 1262 120273 19833 74%
c d  1.38 22 250 0 2 487 57 2504 2080 3.2 21 7 2 8 23% 1260 120273 19833 74%
c u  1.40 22 250 0 2 487 57 2504 1963 3.2 21 7 2 8 23% 1261 120273 19833 74%
c v  1.43 22 250 0 2 487 57 2504 1559 3.2 21 7 2 8 23% 1261 120273 19833 74%
c w  1.47 22 250 0 2 487 57 2504 1559 3.2 21 7 2 8 23% 1261 120273 19833 74%
c x  1.49 22 250 0 2 487 57 2504 1559 3.2 21 7 2 8 23% 1263 120252 19833 74%
c t  1.59 22 250 0 2 487 57 2504 1559 3.2 21 7 2 8 23% 1243 120252 19833 74%
c
c  seconds   switched   rate       size/glue tier1    binary          remaining
c         MB  reductions conflicts       size  tier2     irredundant
c           level restarts    redundant    glue   trail          variables
c
c f  1.62 22 250 0 2 487 57 2504 1559 3.2 21 7 2 8 23% 1346 120072 19892 74%
c u  1.66 22 250 0 2 487 57 2504 1541 3.2 21 7 2 8 23% 1346 120072 19892 74%
c v  1.67 23 250 0 2 487 57 2504 1477 3.2 21 7 2 8 23% 1346 120072 19892 74%
c w  1.73 23 250 0 2 487 57 2504 1455 3.2 21 7 2 8 23% 1346 120072 19892 74%
c f  1.78 23 250 0 2 487 57 2504 1455 3.2 21 7 2 8 23% 1365 120043 19902 74%
c -  2.12 23 259 0 3 600 54 3415 1990 3.6 23 7 3 10 25% 1392 120043 19902 74%
c -  2.57 23 315 0 4 767 50 5147 3183 3.4 22 6 2 11 28% 1412 120043 19902 74%
c -  2.98 23 328 0 5 928 47 7147 4355 3.7 23 6 2 10 28% 1451 120043 19902 74%
c c  3.14 24 334 0 5 990 47 7712 4872 3.7 24 6 2 10 28% 1459 119951 19887 74%
c d  3.14 24 334 0 5 990 47 7712 4871 3.7 24 6 2 10 28% 1429 119951 19887 74%
c u  3.16 24 334 0 5 990 47 7712 4591 3.7 24 6 2 10 28% 1433 119951 19887 74%
c v  3.20 24 334 0 5 990 47 7712 3840 3.7 24 6 2 10 28% 1434 119951 19887 74%
c w  3.26 24 334 0 5 990 47 7712 3832 3.7 24 6 2 10 28% 1434 119951 19887 74%
c x  3.30 24 334 0 5 990 47 7712 3832 3.7 24 6 2 10 28% 1434 119938 19887 74%
c =  3.48 24 334 0 5 990 47 7712 3832 3.7 24 6 2 10 28% 1708 119938 19750 74%
c d  3.49 24 334 0 5 990 47 7712 3829 3.7 24 6 2 10 28% 1416 119938 19750 74%
c t  3.50 24 334 0 5 990 47 7712 3829 3.7 24 6 2 10 28% 1407 119938 19750 74%
c f  3.55 24 334 0 5 990 47 7712 3829 3.7 24 6 2 10 28% 1496 119802 19795 74%
c u  3.59 24 334 0 5 990 47 7712 3783 3.7 24 6 2 10 28% 1499 119802 19795 74%
c v  3.62 24 334 0 5 990 47 7712 3679 3.7 24 6 2 10 28% 1499 119802 19795 74%
c
c  seconds   switched   rate       size/glue tier1     binary          remaining
c         MB  reductions conflicts       size  tier2      irredundant
c           level restarts    redundant    glue    trail          variables
c
c w  3.68 24 334 0 5 990 47 7712 3671 3.7 24 6 2 10 28% 1499 119802 19795 74%
c =  3.85 24 334 0 5 990 47 7712 3671 3.7 24 6 2 10 28% 1629 119802 19730 74%
c d  3.86 24 334 0 5 990 47 7712 3670 3.7 24 6 2 10 28% 1496 119802 19730 74%
c t  3.87 24 334 0 5 990 47 7712 3670 3.7 24 6 2 10 28% 1457 119802 19730 74%
c f  3.92 24 334 0 5 990 47 7712 3670 3.7 24 6 2 10 28% 1565 119640 19784 74%
c -  4.49 24 348 0 6 1125 46 9383 4616 3.7 24 6 2 10 28% 1599 119640 19784 74%
c o  4.66 24 337 0 6 1166 44 10002 5172 3.7 23 6 2 10 28% 1604 119640 19784 74%
c -  5.16 24 326 0 7 1288 42 11832 6053 3.6 23 6 2 9 28% 1649 119640 19784 74%
c s  5.42 24 323 0 7 1353 42 12516 6654 3.7 23 6 2 9 28% 1664 118055 19784 74%
c e  5.53 24 323 0 7 1353 42 12516 6654 3.7 23 6 2 9 28% 1467 118151 19606 73%
c s  5.53 24 323 0 7 1353 42 12516 6654 3.7 23 6 2 9 28% 1479 117994 19606 73%
c e  5.54 24 323 0 7 1353 42 12516 6654 3.7 23 6 2 9 28% 1469 117996 19600 73%
c ^  5.54 24 323 0 7 1353 42 12516 6654 3.7 23 6 2 9 28% 1469 117996 19600 73%
c -  5.90 24 310 0 8 1485 39 14478 7182 3.7 23 6 2 9 27% 1567 117996 19600 73%
c d  6.18 24 305 0 8 1607 38 15800 8368 3.6 23 6 2 9 28% 1495 117996 19553 73%
c u  6.22 24 305 0 8 1607 38 15800 7779 3.6 23 6 2 9 28% 1507 117996 19553 73%
c v  6.27 24 305 0 8 1607 38 15800 6616 3.6 23 6 2 9 28% 1507 117996 19553 73%
c w  6.34 24 305 0 8 1607 38 15800 6593 3.6 23 6 2 9 28% 1507 117996 19553 73%
c =  6.49 24 305 0 8 1607 38 15800 6593 3.6 23 6 2 9 28% 4011 117996 18301 68%
c d  6.50 24 305 0 8 1607 38 15800 6562 3.6 23 6 2 9 28% 1459 117996 18300 68%
c
c  seconds   switched    rate        size/glue tier1    binary          remaining
c         MB  reductions   conflicts       size  tier2     irredundant
c           level  restarts     redundant    glue   trail          variables
c
c t  6.52 24 305 0 8 1607 38 15800 6562 3.6 23 6 2 9 28% 1414 117996 18300 68%
c f  6.57 24 305 0 8 1607 38 15800 6562 3.6 23 6 2 9 28% 1444 117928 18315 68%
c c  6.62 24 305 0 8 1607 38 15800 6558 3.6 23 6 2 9 28% 1448 117912 18313 68%
c d  6.63 24 305 0 8 1607 38 15800 6558 3.6 23 6 2 9 28% 1444 117912 18313 68%
c u  6.66 24 305 0 8 1607 38 15800 6375 3.6 23 6 2 9 28% 1445 117912 18313 68%
c v  6.70 24 305 0 8 1607 38 15800 6167 3.6 23 6 2 9 28% 1445 117912 18313 68%
c w  6.78 24 305 0 8 1607 38 15800 6155 3.6 23 6 2 9 28% 1445 117912 18313 68%
c x  6.81 24 305 0 8 1607 38 15800 6153 3.6 23 6 2 9 28% 1447 114122 18313 68%
c =  6.98 24 305 0 8 1607 38 15800 6153 3.6 23 6 2 9 28% 4813 114122 16630 62%
c d  6.99 24 305 0 8 1607 38 15800 6081 3.6 23 6 2 9 28% 1324 114122 16630 62%
c t  7.00 24 305 0 8 1607 38 15800 6081 3.6 23 6 2 9 28% 1322 114122 16630 62%
c -  7.39 24 294 0 9 1725 37 17307 6759 3.5 23 6 2 9 27% 1338 114122 16630 62%
c o  8.07 24 279 0 9 2006 36 20005 9193 3.6 24 6 2 9 28% 1371 114122 16630 62%
c -  8.15 24 278 0 10 2043 36 20309 8620 3.7 24 6 2 8 28% 1372 114122 16630 62%
c -  9.06 24 270 0 11 2373 36 23473 10317 3.8 25 7 2 8 27% 1404 114122 16630 62%
c s  9.16 24 265 0 11 2400 34 25029 11626 3.7 24 7 2 8 26% 1437 98625 16630 62%
c e  9.28 24 265 0 11 2400 34 25029 11626 3.7 24 7 2 8 26% 1128 98999 16421 61%
c s  9.28 24 265 0 11 2400 34 25029 11626 3.7 24 7 2 8 26% 1155 98766 16421 61%
c e  9.29 24 265 0 11 2400 34 25029 11626 3.7 24 7 2 8 26% 1144 98781 16416 61%
c ^  9.29 24 265 0 11 2400 34 25029 11626 3.7 24 7 2 8 26% 1144 98781 16416 61%
c
c  seconds   switched     rate         size/glue tier1    binary         remaining
c         MB   reductions   conflicts        size  tier2     irredundant
c           level   restarts      redundant    glue   trail         variables
c
c -  9.67 24 262 0 12 2532 34 26790 11361 3.6 24 7 2 7 26% 1169 98781 16416 61%
c d  9.77 24 261 0 12 2566 34 26934 11498 3.6 24 7 2 7 26% 1156 98781 16409 61%
c u  9.83 24 261 0 12 2566 34 26934 10400 3.6 24 7 2 7 26% 1167 98781 16409 61%
c v  9.90 24 261 0 12 2566 34 26934 9247 3.6 24 7 2 7 26% 1169 98781 16409 61%
c w  9.93 24 261 0 12 2566 34 26934 9241 3.6 24 7 2 7 26% 1169 98781 16409 61%
c = 10.22 24 261 0 12 2566 34 26934 9241 3.6 24 7 2 7 26% 4807 98781 14590 55%
c d 10.23 24 261 0 12 2566 34 26934 9015 3.6 24 7 2 7 26% 1085 98781 14590 55%
c t 10.25 24 261 0 12 2566 34 26934 9015 3.6 24 7 2 7 26% 1058 98781 14590 55%
c f 10.32 24 261 0 12 2566 34 26934 9015 3.6 24 7 2 7 26% 1085 98706 14604 55%
c u 10.39 24 261 0 12 2566 34 26934 8619 3.6 24 7 2 7 26% 1086 98706 14604 55%
c v 10.44 24 261 0 12 2566 34 26934 8402 3.6 24 7 2 7 26% 1086 98706 14604 55%
c w 10.47 24 261 0 12 2566 34 26934 8397 3.6 24 7 2 7 26% 1086 98706 14604 55%
c x 10.55 24 261 0 12 2566 34 26934 8397 3.6 24 7 2 7 26% 1089 92546 14604 55%
c = 10.81 24 261 0 12 2566 34 26934 8397 3.6 24 7 2 7 26% 2213 92546 14042 52%
c d 10.82 24 261 0 12 2566 34 26934 8394 3.6 24 7 2 7 26% 1081 92546 14042 52%
c t 10.83 24 261 0 12 2566 34 26934 8394 3.6 24 7 2 7 26% 1080 92546 14042 52%
c f 10.86 24 261 0 12 2566 34 26934 8394 3.6 24 7 2 7 26% 1090 92521 14047 52%
c - 11.60 24 253 0 13 2846 33 30254 10325 3.6 24 7 2 7 26% 1122 92521 14047 52%
c - 12.30 24 246 0 14 3113 32 33859 12311 3.5 23 7 2 7 27% 1176 92521 14047 52%
c - 13.14 24 240 0 15 3442 31 37600 13995 3.4 23 7 2 6 27% 1218 92521 14047 52%
c
c  seconds   switched     rate         size/glue tier1    binary         remaining
c         MB   reductions   conflicts        size  tier2     irredundant
c           level   restarts      redundant    glue   trail         variables
c
c o 13.75 24 236 0 15 3680 31 40099 16126 3.5 23 7 2 6 27% 1262 92521 14047 52%
c d 14.14 24 234 0 15 3830 31 41264 16993 3.5 24 7 2 6 27% 1182 92521 14004 52%
c u 14.22 24 234 0 15 3830 31 41264 15139 3.5 24 7 2 6 27% 1213 92521 14004 52%
c v 14.29 24 234 0 15 3830 31 41264 14293 3.5 24 7 2 6 27% 1213 92521 14004 52%
c w 14.35 24 234 0 15 3830 31 41264 14293 3.5 24 7 2 6 27% 1213 92521 14004 52%
c x 14.40 24 234 0 15 3830 31 41264 14293 3.5 24 7 2 6 27% 1213 92516 14004 52%
c = 14.69 24 234 0 15 3830 31 41264 14293 3.5 24 7 2 6 27% 1215 92516 14003 52%
c d 14.70 24 234 0 15 3830 31 41264 14264 3.5 24 7 2 6 27% 1194 92516 13994 52%
c t 14.71 24 234 0 15 3830 31 41264 14264 3.5 24 7 2 6 27% 1187 92516 13994 52%
c f 14.73 24 234 0 15 3830 31 41264 14264 3.5 24 7 2 6 27% 1209 92448 14005 52%
c c 14.79 24 234 0 15 3830 31 41264 14021 3.5 24 7 2 6 27% 1279 92126 13964 52%
c d 14.80 24 234 0 15 3830 31 41264 14021 3.5 24 7 2 6 27% 1197 92126 13964 52%
c u 14.87 24 234 0 15 3830 31 41264 13726 3.5 24 7 2 6 27% 1213 92126 13964 52%
c v 14.94 24 234 0 15 3830 31 41264 12907 3.5 24 7 2 6 27% 1214 92126 13964 52%
c w 15.11 24 234 0 15 3830 31 41264 12893 3.5 24 7 2 6 27% 1214 92126 13964 52%
c d 15.11 24 234 0 15 3830 31 41264 12883 3.5 24 7 2 6 27% 1198 92126 13956 52%
c t 15.13 24 234 0 15 3830 31 41264 12883 3.5 24 7 2 6 27% 1187 92126 13956 52%
c f 15.14 24 234 0 15 3830 31 41264 12883 3.5 24 7 2 6 27% 1189 92121 13957 52%
c - 15.17 24 234 0 16 3835 31 41472 11807 3.5 24 7 2 6 27% 1193 92121 13957 52%
c - 16.14 24 233 0 17 4211 31 45473 13983 3.4 24 7 2 6 27% 1230 92121 13957 52%
c
c  seconds   switched     rate         size/glue tier1    binary         remaining
c         MB   reductions   conflicts        size  tier2     irredundant
c           level   restarts      redundant    glue   trail         variables
c
c - 17.27 24 230 0 18 4653 31 49596 16125 3.4 24 7 2 6 27% 1276 92121 13957 52%
c s 17.79 24 226 0 18 4847 30 52130 18210 3.4 24 7 2 6 27% 1338 82024 13957 52%
c e 17.90 24 226 0 18 4847 30 52130 18210 3.4 24 7 2 6 27% 1126 82266 13795 52%
c s 17.90 24 226 0 18 4847 30 52130 18210 3.4 24 7 2 6 27% 1126 81941 13795 52%
c e 17.91 24 226 0 18 4847 30 52130 18210 3.4 24 7 2 6 27% 1124 81945 13793 52%
c ^ 17.91 24 226 0 18 4847 30 52130 18210 3.4 24 7 2 6 27% 1124 81945 13793 52%
c - 18.57 24 224 0 19 5095 30 53838 16974 3.4 25 7 2 6 27% 1133 81945 13793 52%
c - 19.56 24 223 0 20 5505 29 58197 18763 3.4 25 7 2 6 27% 1169 81945 13793 52%
c d 19.92 24 222 0 20 5648 30 58893 19360 3.4 25 7 2 6 28% 1139 81945 13775 51%
c u 20.02 24 222 0 20 5648 30 58893 16864 3.4 25 7 2 6 28% 1149 81945 13775 51%
c v 20.11 24 222 0 20 5648 30 58893 15741 3.4 25 7 2 6 28% 1149 81945 13775 51%
c w 20.17 24 222 0 20 5648 30 58893 15737 3.4 25 7 2 6 28% 1149 81945 13775 51%
c x 20.25 24 222 0 20 5648 30 58893 15737 3.4 25 7 2 6 28% 1149 81780 13775 51%
c = 20.66 24 222 0 20 5648 30 58893 15737 3.4 25 7 2 6 28% 1189 81780 13755 51%
c d 20.67 24 222 0 20 5648 30 58893 15688 3.4 25 7 2 6 28% 1136 81780 13755 51%
c t 20.68 24 222 0 20 5648 30 58893 15688 3.4 25 7 2 6 28% 1133 81780 13755 51%
c f 20.70 24 222 0 20 5648 30 58893 15688 3.4 25 7 2 6 28% 1142 81745 13760 51%
c c 20.77 24 222 0 20 5648 30 58893 15578 3.4 25 7 2 6 28% 1188 81513 13731 51%
c d 20.77 24 222 0 20 5648 30 58893 15578 3.4 25 7 2 6 28% 1130 81513 13731 51%
c u 20.85 24 222 0 20 5648 30 58893 14964 3.4 25 7 2 6 28% 1141 81513 13731 51%
c
c  seconds   switched     rate         size/glue tier1    binary         remaining
c         MB   reductions   conflicts        size  tier2     irredundant
c           level   restarts      redundant    glue   trail         variables
c
c v 20.92 24 222 0 20 5648 30 58893 14301 3.4 25 7 2 6 28% 1144 81513 13731 51%
c w 21.04 24 222 0 20 5648 30 58893 14260 3.4 25 7 2 6 28% 1144 81513 13731 51%
c x 21.11 24 222 0 20 5648 30 58893 14260 3.4 25 7 2 6 28% 1144 81506 13731 51%
c = 21.53 24 222 0 20 5648 30 58893 14260 3.4 25 7 2 6 28% 1216 81506 13695 51%
c d 21.54 24 222 0 20 5648 30 58893 14190 3.4 25 7 2 6 28% 1128 81506 13692 51%
c t 21.55 24 222 0 20 5648 30 58893 14190 3.4 25 7 2 6 28% 1126 81506 13692 51%
c - 22.51 24 218 0 21 6016 29 62669 15922 3.4 25 7 2 6 28% 1169 81506 13692 51%
c - 23.82 24 215 0 22 6591 29 67252 18205 3.4 25 8 2 5 28% 1202 81506 13692 51%
c o 24.58 24 212 0 22 6859 29 70116 20805 3.4 25 8 2 5 28% 1227 81506 13692 51%
c - 25.19 24 210 0 23 7075 29 71944 18401 3.4 26 8 1 5 28% 1239 81506 13692 51%
c - 26.49 24 207 0 24 7501 28 76740 18935 3.4 26 8 1 5 29% 1266 81506 13692 51%
c c 27.54 24 205 0 24 7869 28 79969 21852 3.4 26 8 1 5 29% 1343 80921 13605 51%
c d 27.55 24 205 0 24 7869 28 79969 21538 3.4 26 8 1 5 29% 1169 80921 13605 51%
c u 27.62 24 205 0 24 7869 28 79969 20031 3.4 26 8 1 5 29% 1186 80921 13605 51%
c v 27.71 24 205 0 24 7869 28 79969 17232 3.4 26 8 1 5 29% 1190 80921 13605 51%
c w 28.01 24 205 0 24 7869 28 79969 17131 3.4 26 8 1 5 29% 1190 80921 13605 51%
c = 28.52 24 205 0 24 7869 28 79969 17131 3.4 26 8 1 5 29% 1300 80919 13550 51%
c d 28.53 24 205 0 24 7869 28 79969 17063 3.4 26 8 1 5 29% 1167 80919 13550 51%
c t 28.55 24 205 0 24 7869 28 79969 17063 3.4 26 8 1 5 29% 1153 80919 13550 51%
c f 28.57 24 205 0 24 7869 28 79969 17063 3.4 26 8 1 5 29% 1155 80912 13551 51%
c
c  seconds   switched     rate         size/glue tier1    binary         remaining
c         MB   reductions   conflicts        size  tier2     irredundant
c           level   restarts      redundant    glue   trail         variables
c
c u 28.70 24 205 0 24 7869 28 79969 16669 3.4 26 8 1 5 29% 1155 80912 13551 51%
c v 28.78 24 205 0 24 7869 28 79969 16008 3.4 26 8 1 5 29% 1158 80912 13551 51%
c w 28.98 24 205 0 24 7869 28 79969 15595 3.4 26 8 1 5 29% 1158 80912 13551 51%
c x 29.09 24 205 0 24 7869 28 79969 15594 3.4 26 8 1 5 29% 1166 79901 13551 51%
c = 29.58 24 205 0 24 7869 28 79969 15594 3.4 26 8 1 5 29% 1450 79901 13409 50%
c d 29.59 24 205 0 24 7869 28 79969 15568 3.4 26 8 1 5 29% 1159 79901 13409 50%
c t 29.60 24 205 0 24 7869 28 79969 15568 3.4 26 8 1 5 29% 1145 79901 13409 50%
c f 29.62 24 205 0 24 7869 28 79969 15568 3.4 26 8 1 5 29% 1147 79894 13410 50%
c - 30.31 24 203 0 25 8125 28 81638 14597 3.4 27 8 1 5 29% 1150 79894 13410 50%
c - 30.89 24 198 0 26 8293 27 86639 16294 3.3 26 8 1 5 28% 1163 79893 13410 50%
c - 32.34 24 196 0 27 8816 27 91738 18036 3.3 26 8 1 5 28% 1196 79893 13410 50%
c s 33.26 24 194 0 27 9141 26 95830 21542 3.3 26 8 1 5 28% 1232 78960 13410 50%
c e 33.36 24 194 0 27 9141 26 95830 21542 3.3 26 8 1 5 28% 762 80227 13106 49%
c s 33.37 24 194 0 27 9141 26 95830 21542 3.3 26 8 1 5 28% 765 79846 13106 49%
c e 33.38 24 194 0 27 9141 26 95830 21542 3.3 26 8 1 5 28% 752 79861 13093 49%
c ^ 33.38 24 194 0 27 9141 26 95830 21542 3.3 26 8 1 5 28% 752 79861 13093 49%
c - 33.60 24 192 0 28 9237 26 96934 17559 3.3 26 8 1 5 28% 755 79861 13093 49%
c - 34.76 24 190 0 29 9696 26 102225 19359 3.3 26 8 1 5 28% 771 79860 13093 49%
c d 34.93 24 190 0 29 9751 25 104606 20824 3.3 26 8 1 5 27% 770 79860 13071 49%
c u 35.00 24 190 0 29 9751 25 104606 19283 3.3 26 8 1 5 27% 782 79860 13071 49%
c
c  seconds   switched     rate          size/glue tier1   binary         remaining
c         MB   reductions   conflicts         size  tier2    irredundant
c           level   restarts       redundant    glue   trail        variables
c
c v 35.11 24 190 0 29 9751 25 104606 16566 3.3 26 8 1 5 27% 787 79860 13071 49%
c w 35.19 24 190 0 29 9751 25 104606 16138 3.3 26 8 1 5 27% 787 79860 13071 49%
c x 35.31 24 190 0 29 9751 25 104606 16120 3.3 26 8 1 5 27% 797 79653 13071 49%
c d 35.72 24 190 0 29 9751 25 104606 16100 3.3 26 8 1 5 27% 777 79653 13061 49%
c t 35.73 24 190 0 29 9751 25 104606 16100 3.3 26 8 1 5 27% 752 79653 13061 49%
c f 35.77 24 190 0 29 9751 25 104606 16100 3.3 26 8 1 5 27% 758 79617 13064 49%
c c 35.83 24 190 0 29 9751 25 104606 16043 3.3 26 8 1 5 27% 782 79472 13051 49%
c d 35.84 24 190 0 29 9751 25 104606 16043 3.3 26 8 1 5 27% 756 79472 13051 49%
c u 35.90 24 190 0 29 9751 25 104606 15692 3.3 26 8 1 5 27% 762 79472 13051 49%
c v 35.97 24 190 0 29 9751 25 104606 14945 3.3 26 8 1 5 27% 765 79472 13051 49%
c w 36.07 24 190 0 29 9751 25 104606 14737 3.3 26 8 1 5 27% 765 79472 13051 49%
c d 36.07 24 190 0 29 9751 25 104606 14737 3.3 26 8 1 5 27% 763 79472 13050 49%
c t 36.09 24 190 0 29 9751 25 104606 14737 3.3 26 8 1 5 27% 760 79472 13050 49%
c - 36.71 24 189 0 30 10009 25 107613 15215 3.3 26 8 1 5 27% 798 79472 13050 49%
c o 37.33 24 188 0 30 10223 25 110179 17647 3.3 26 8 1 5 27% 802 79472 13050 49%
c - 38.21 24 186 0 31 10494 25 113091 17773 3.3 26 8 1 5 27% 807 79472 13050 49%
c - 39.50 24 185 0 32 10954 24 118658 19912 3.3 26 8 1 5 28% 829 79471 13050 49%
c - 40.63 24 182 0 33 11507 24 124316 21509 3.3 27 8 1 5 28% 849 79470 13050 49%
c - 41.41 24 177 0 34 11865 24 130062 22537 3.2 26 8 1 5 28% 874 79470 13050 49%
c d 41.89 24 176 0 34 12101 23 132878 25058 3.2 26 8 1 5 28% 836 79470 13026 49%
c
c  seconds   switched      rate          size/glue tier1   binary         remaining
c         MB   reductions    conflicts         size  tier2    irredundant
c           level   restarts        redundant    glue   trail        variables
c
c u 41.95 24 176 0 34 12101 23 132878 23194 3.2 26 8 1 5 28% 853 79470 13026 49%
c v 42.04 24 176 0 34 12101 23 132878 19791 3.2 26 8 1 5 28% 857 79470 13026 49%
c w 42.14 24 176 0 34 12101 23 132878 19784 3.2 26 8 1 5 28% 857 79470 13026 49%
c x 42.19 24 176 0 34 12101 23 132878 19783 3.2 26 8 1 5 28% 857 79440 13026 49%
c d 42.65 24 176 0 34 12101 23 132878 19775 3.2 26 8 1 5 28% 853 79440 13024 49%
c t 42.66 24 176 0 34 12101 23 132878 19775 3.2 26 8 1 5 28% 846 79440 13024 49%
c u 42.72 24 176 0 34 12101 23 132878 19325 3.2 26 8 1 5 28% 848 79440 13024 49%
c v 42.78 24 176 0 34 12101 23 132878 18618 3.2 26 8 1 5 28% 848 79440 13024 49%
c w 43.03 24 176 0 34 12101 23 132878 18166 3.2 26 8 1 5 28% 848 79440 13024 49%
c - 43.49 24 175 0 35 12332 23 135892 18080 3.2 26 8 1 5 28% 864 79440 13024 49%
c - 44.31 24 170 0 36 12740 23 141808 20384 3.2 26 8 1 5 28% 888 79438 13024 49%
c - 44.90 24 164 0 37 13030 22 147810 21981 3.1 25 8 1 5 28% 914 79438 13024 49%
c i 45.05 24 162 0 37 13102 21 150148 23907 3.1 25 8 1 5 28% 946 79436 13022 49%
c - 45.39 24 158 0 38 13264 21 153892 22989 3.0 25 8 1 5 27% 972 79436 13022 49%
c i 45.49 24 157 0 38 13325 21 154900 23889 3.0 25 8 1 5 27% 981 79435 12993 49%
c i 45.59 24 155 0 38 13366 20 156528 25313 3.0 24 8 1 5 27% 989 79435 12992 49%
c s 45.74 24 154 0 38 13447 20 157952 26617 3.0 24 8 1 5 27% 1002 79155 12992 49%
c e 45.88 24 154 0 38 13447 20 157952 26617 3.0 24 8 1 5 27% 822 89157 11497 43%
c s 45.91 24 154 0 38 13447 20 157952 26617 3.0 24 8 1 5 27% 824 87315 11497 43%
c e 45.94 24 154 0 38 13447 20 157952 26617 3.0 24 8 1 5 27% 805 87413 11476 43%
c
c  seconds   switched      rate          size/glue tier1   binary         remaining
c         MB   reductions    conflicts         size  tier2    irredundant
c           level   restarts        redundant    glue   trail        variables
c
c ^ 45.94 24 154 0 38 13447 20 157952 26617 3.0 24 8 1 5 27% 805 87413 11476 43%
c i 46.02 24 153 0 38 13466 20 158510 19748 3.0 24 8 1 5 27% 813 87413 11474 43%
c i 46.15 24 153 0 38 13512 20 159511 20620 3.0 24 8 1 5 27% 827 87412 11472 43%
c - 46.23 24 153 0 39 13537 20 160056 17575 3.0 24 8 1 5 27% 875 87377 11472 43%
c o 46.26 24 152 0 39 13539 20 160241 17751 3.0 24 8 1 5 27% 876 87377 11472 43%
c i 46.35 24 152 0 39 13569 20 160732 18198 3.0 24 8 1 5 27% 878 87377 11471 43%
c i 46.39 24 152 0 39 13584 20 161058 18432 3.0 24 8 1 5 27% 886 87377 11470 43%
c i 46.40 24 152 0 39 13588 20 161162 18525 3.0 24 8 1 5 27% 888 87377 11469 43%
c i 46.47 24 151 0 39 13613 20 162332 19474 3.0 24 8 1 5 27% 893 87377 11468 43%
c i 46.53 24 151 0 39 13635 19 162608 19727 3.0 24 8 1 5 27% 896 87377 11466 43%
c i 46.55 24 150 0 39 13641 19 162707 19815 3.0 24 8 1 5 27% 898 87377 11465 43%
c i 46.75 24 149 0 39 13720 19 164284 21250 2.9 23 8 1 5 26% 909 87376 11464 43%
c i 46.77 24 149 0 39 13727 19 164350 21306 2.9 23 8 1 5 26% 911 87376 11463 43%
c c 46.87 24 149 0 39 13754 19 164882 21798 2.9 23 8 1 5 26% 895 86959 11418 43%
c d 46.88 24 149 0 39 13754 19 164882 21480 2.9 23 8 1 5 26% 861 86927 11418 43%
c d 46.89 24 149 0 39 13754 19 164882 21451 2.9 23 8 1 5 26% 826 86927 11401 43%
c u 46.96 24 149 0 39 13754 19 164882 19607 2.9 23 8 1 5 26% 859 86927 11400 43%
c v 47.10 24 149 0 39 13754 19 164882 17122 2.9 23 8 1 5 26% 870 86927 11400 43%
c w 47.29 24 149 0 39 13754 19 164882 16708 2.9 23 8 1 5 26% 870 86927 11400 43%
c d 47.29 24 149 0 39 13754 19 164882 16695 2.9 23 8 1 5 26% 860 86865 11390 43%
c
c  seconds   switched      rate          size/glue tier1   binary         remaining
c         MB   reductions    conflicts         size  tier2    irredundant
c           level   restarts        redundant    glue   trail        variables
c
c d 47.30 24 149 0 39 13754 19 164882 16692 2.9 23 8 1 5 26% 852 86865 11386 43%
c t 47.31 24 149 0 39 13754 19 164882 16692 2.9 23 8 1 5 26% 822 86865 11386 43%
c u 47.50 24 149 0 39 13754 19 164882 16415 2.9 23 8 1 5 26% 829 86865 11385 43%
c v 47.59 24 149 0 39 13754 19 164882 15883 2.9 23 8 1 5 26% 829 86865 11385 43%
c w 47.72 24 149 0 39 13754 19 164882 15686 2.9 23 8 1 5 26% 829 86865 11385 43%
c x 47.85 24 149 0 39 13754 19 164882 15683 2.9 23 8 1 5 26% 854 85880 11383 43%
c d 48.35 24 149 0 39 13754 19 164882 15612 2.9 23 8 1 5 26% 847 85824 11378 43%
c d 48.35 24 149 0 39 13754 19 164882 15612 2.9 23 8 1 5 26% 843 85824 11376 43%
c t 48.36 24 149 0 39 13754 19 164882 15612 2.9 23 8 1 5 26% 826 85824 11376 43%
c i 48.40 24 149 0 39 13754 19 164882 15612 2.9 23 8 1 5 26% 826 85824 11376 43%
c i 48.41 24 148 0 39 13759 19 165006 15690 2.9 23 8 1 5 26% 834 85824 11375 42%
c i 48.42 24 148 0 39 13780 19 165642 16222 2.9 23 8 1 5 26% 838 85818 11374 42%
c i 48.45 24 147 0 39 13800 19 166063 16591 2.9 23 8 1 5 26% 841 85818 11373 42%
c - 48.45 24 147 0 40 13808 19 166300 14161 2.9 23 8 1 5 26% 810 85818 11373 42%
c i 48.45 24 147 0 40 13808 19 166362 14185 2.9 23 8 1 5 26% 818 85818 11372 42%
c i 48.45 24 147 0 40 13808 19 166414 14206 2.9 23 8 1 5 26% 825 85818 11371 42%
c i 48.45 24 147 0 40 13808 19 166457 14229 2.9 23 8 1 5 26% 829 85818 11368 42%
c i 48.45 24 147 0 40 13808 19 166462 14230 2.9 23 8 1 5 26% 831 85818 11366 42%
c } 48.45 24 147 0 40 13808 19 166468 14230 2.9 23 8 1 5 26% 833 85816 11353 42%
c 0 48.45 24 147 0 40 13808 19 166468 14230 2.9 23 8 1 5 26% 833 85816 11353 42%
c
c ---- [ result ] ------------------------------------------------------------
c
s UNSATISFIABLE
c
c ---- [ profiling ] ---------------------------------------------------------
c
c          34.97   72.18 %  search
c          34.97   72.18 %  focused
c          12.92   26.66 %  simplify
c          12.35   25.48 %  probe
c           5.28   10.90 %  vivify
c           4.79    9.88 %  sweep
c           0.87    1.80 %  factor
c           0.82    1.68 %  eliminate
c           0.63    1.31 %  substitute
c           0.59    1.22 %  congruence
c           0.50    1.04 %  preprocess
c           0.25    0.52 %  fastel
c           0.25    0.51 %  reduce
c           0.13    0.27 %  subsume
c           0.11    0.22 %  transitive
c           0.07    0.15 %  backbone
c           0.03    0.07 %  lucky
c           0.02    0.05 %  parse
c =============================================
c          48.45  100.00 %  total
c
c ---- [ statistics ] --------------------------------------------------------
c
c chronological:                         6618                4 %  conflicts
c conflicts:                           166468             3435.62 per second
c congruent:                              514                2 %  variables
c decisions:                          3551739               21.34 per conflict
c eliminated:                           12449               47 %  variables
c factored:                              3732               14 %  variables
c fast_eliminated:                      10054               81 %  eliminated
c fast_strengthened:                       65                2 %  per strengthened
c fast_subsumed:                           83                0 %  per subsumed
c iterations:                              21                0 %  variables
c propagations:                     141972329          2930070    per second
c reductions:                              40             4162    interval
c reordered:                                6            27745    interval
c restarts:                             13808               12    interval
c strengthened:                          2963                0 %  checks
c substituted:                           6620               25 %  variables
c subsumed:                             31228                1 %  checks
c switched:                                 0                0    interval
c vivified:                             68549               13 %  checks
c
c ---- [ glue usage ] --------------------------------------------------------
c
c focused glue 1 used 266636 clauses 57.45% accumulated 57.45% tier1
c focused glue 2 used  91890 clauses 19.80% accumulated 77.26%
c focused glue 3 used  30483 clauses  6.57% accumulated 83.82%
c focused glue 4 used  18275 clauses  3.94% accumulated 87.76%
c focused glue 5 used  12986 clauses  2.80% accumulated 90.56% tier2
c
c ---- [ resources ] ---------------------------------------------------------
c
c maximum-resident-set-size:         25567232 bytes         24 MB
c process-time:                            48s              48.45 seconds
c
c ---- [ shutting down ] -----------------------------------------------------
c
c exit 20
